p wcnf 327 788
w -2 0.367879 0
w 2 2.718282 0
w -3 0.367879 0
w 3 2.718282 0
w -4 0.367879 0
w 4 2.718282 0
w -6 0.367879 0
w 6 2.718282 0
w -7 0.367879 0
w 7 2.718282 0
w -8 0.367879 0
w 8 2.718282 0
w -10 0.367879 0
w 10 2.718282 0
w -11 0.367879 0
w 11 2.718282 0
w -12 0.367879 0
w 12 2.718282 0
w -14 0.367879 0
w 14 2.718282 0
w -15 0.367879 0
w 15 2.718282 0
w -16 0.367879 0
w 16 2.718282 0
w -17 0.367879 0
w 17 2.718282 0
w -18 0.367879 0
w 18 2.718282 0
w -19 0.367879 0
w 19 2.718282 0
w -20 0.367879 0
w 20 2.718282 0
w -22 0.367879 0
w 22 2.718282 0
w -23 0.367879 0
w 23 2.718282 0
w -24 0.367879 0
w 24 2.718282 0
w -25 0.367879 0
w 25 2.718282 0
w -26 0.367879 0
w 26 2.718282 0
w -28 0.367879 0
w 28 2.718282 0
w -29 0.367879 0
w 29 2.718282 0
w -31 0.367879 0
w 31 2.718282 0
w -32 0.367879 0
w 32 2.718282 0
w -35 0.367879 0
w 35 2.718282 0
w -36 0.367879 0
w 36 2.718282 0
w -37 0.367879 0
w 37 2.718282 0
w -39 0.367879 0
w 39 2.718282 0
w -40 0.367879 0
w 40 2.718282 0
w -42 0.367879 0
w 42 2.718282 0
w -43 0.367879 0
w 43 2.718282 0
w -44 0.367879 0
w 44 2.718282 0
w -45 0.367879 0
w 45 2.718282 0
w -47 0.367879 0
w 47 2.718282 0
w -48 0.367879 0
w 48 2.718282 0
w -49 0.367879 0
w 49 2.718282 0
w -50 0.367879 0
w 50 2.718282 0
w -52 0.367879 0
w 52 2.718282 0
w -53 0.367879 0
w 53 2.718282 0
w -54 0.367879 0
w 54 2.718282 0
w -55 0.367879 0
w 55 2.718282 0
w -57 0.367879 0
w 57 2.718282 0
w -59 0.367879 0
w 59 2.718282 0
w -60 0.367879 0
w 60 2.718282 0
w -63 0.367879 0
w 63 2.718282 0
w -64 0.367879 0
w 64 2.718282 0
w -65 0.367879 0
w 65 2.718282 0
w -66 0.367879 0
w 66 2.718282 0
w -67 0.367879 0
w 67 2.718282 0
w -69 0.367879 0
w 69 2.718282 0
w -70 0.367879 0
w 70 2.718282 0
w -71 0.367879 0
w 71 2.718282 0
w -72 0.367879 0
w 72 2.718282 0
w -74 0.367879 0
w 74 2.718282 0
w -75 0.367879 0
w 75 2.718282 0
w -77 0.367879 0
w 77 2.718282 0
w -78 0.367879 0
w 78 2.718282 0
w -79 0.367879 0
w 79 2.718282 0
w -80 0.367879 0
w 80 2.718282 0
w -82 0.367879 0
w 82 2.718282 0
w -83 0.367879 0
w 83 2.718282 0
w -84 0.367879 0
w 84 2.718282 0
w -86 0.367879 0
w 86 2.718282 0
w -87 0.367879 0
w 87 2.718282 0
w -88 0.367879 0
w 88 2.718282 0
w -90 0.367879 0
w 90 2.718282 0
w -91 0.367879 0
w 91 2.718282 0
w -93 0.367879 0
w 93 2.718282 0
w -94 0.367879 0
w 94 2.718282 0
w -96 0.367879 0
w 96 2.718282 0
w -97 0.367879 0
w 97 2.718282 0
w -98 0.367879 0
w 98 2.718282 0
w -100 0.367879 0
w 100 2.718282 0
w -101 0.367879 0
w 101 2.718282 0
w -103 0.367879 0
w 103 2.718282 0
w -104 0.367879 0
w 104 2.718282 0
w -105 0.367879 0
w 105 2.718282 0
w -106 0.367879 0
w 106 2.718282 0
w -107 0.367879 0
w 107 2.718282 0
w -110 0.367879 0
w 110 2.718282 0
w -113 0.367879 0
w 113 2.718282 0
w -114 0.367879 0
w 114 2.718282 0
w -116 0.367879 0
w 116 2.718282 0
w -117 0.367879 0
w 117 2.718282 0
w -118 0.367879 0
w 118 2.718282 0
w -119 0.367879 0
w 119 2.718282 0
w -121 0.367879 0
w 121 2.718282 0
w -122 0.367879 0
w 122 2.718282 0
w -124 0.367879 0
w 124 2.718282 0
w -125 0.367879 0
w 125 2.718282 0
w -126 0.367879 0
w 126 2.718282 0
w -127 0.367879 0
w 127 2.718282 0
w -129 0.367879 0
w 129 2.718282 0
w -130 0.367879 0
w 130 2.718282 0
w -132 0.367879 0
w 132 2.718282 0
w -134 0.367879 0
w 134 2.718282 0
w -136 0.367879 0
w 136 2.718282 0
w -137 0.367879 0
w 137 2.718282 0
w -138 0.367879 0
w 138 2.718282 0
w -140 0.367879 0
w 140 2.718282 0
w -142 0.367879 0
w 142 2.718282 0
w -143 0.367879 0
w 143 2.718282 0
w -144 0.367879 0
w 144 2.718282 0
w -146 0.367879 0
w 146 2.718282 0
w -147 0.367879 0
w 147 2.718282 0
w -148 0.367879 0
w 148 2.718282 0
w -150 0.367879 0
w 150 2.718282 0
w -152 0.367879 0
w 152 2.718282 0
w -153 0.367879 0
w 153 2.718282 0
w -154 0.367879 0
w 154 2.718282 0
w -155 0.367879 0
w 155 2.718282 0
w -156 0.367879 0
w 156 2.718282 0
w -158 0.367879 0
w 158 2.718282 0
w -159 0.367879 0
w 159 2.718282 0
w -160 0.367879 0
w 160 2.718282 0
w -162 0.367879 0
w 162 2.718282 0
w -164 0.367879 0
w 164 2.718282 0
w -165 0.367879 0
w 165 2.718282 0
w -167 0.367879 0
w 167 2.718282 0
w -168 0.367879 0
w 168 2.718282 0
w -170 0.367879 0
w 170 2.718282 0
w -171 0.367879 0
w 171 2.718282 0
w -174 0.367879 0
w 174 2.718282 0
w -175 0.367879 0
w 175 2.718282 0
w -176 0.367879 0
w 176 2.718282 0
w -179 0.367879 0
w 179 2.718282 0
w -181 0.367879 0
w 181 2.718282 0
w -182 0.367879 0
w 182 2.718282 0
w -183 0.367879 0
w 183 2.718282 0
w -184 0.367879 0
w 184 2.718282 0
w -186 0.367879 0
w 186 2.718282 0
w -187 0.367879 0
w 187 2.718282 0
w -188 0.367879 0
w 188 2.718282 0
w -189 0.367879 0
w 189 2.718282 0
w -190 0.367879 0
w 190 2.718282 0
w -192 0.367879 0
w 192 2.718282 0
w -194 0.367879 0
w 194 2.718282 0
w -195 0.367879 0
w 195 2.718282 0
w -197 0.367879 0
w 197 2.718282 0
w -198 0.367879 0
w 198 2.718282 0
w -199 0.367879 0
w 199 2.718282 0
w -200 0.367879 0
w 200 2.718282 0
w -202 0.367879 0
w 202 2.718282 0
w -205 0.367879 0
w 205 2.718282 0
w -208 0.367879 0
w 208 2.718282 0
w -210 0.367879 0
w 210 2.718282 0
w -211 0.367879 0
w 211 2.718282 0
w -213 0.367879 0
w 213 2.718282 0
w -214 0.367879 0
w 214 2.718282 0
w -217 0.367879 0
w 217 2.718282 0
w -218 0.367879 0
w 218 2.718282 0
w -219 0.367879 0
w 219 2.718282 0
w -220 0.367879 0
w 220 2.718282 0
w -222 0.367879 0
w 222 2.718282 0
w -223 0.367879 0
w 223 2.718282 0
w -228 0.367879 0
w 228 2.718282 0
w -230 0.367879 0
w 230 2.718282 0
w -232 0.367879 0
w 232 2.718282 0
w -233 0.367879 0
w 233 2.718282 0
w -234 0.367879 0
w 234 2.718282 0
w -237 0.367879 0
w 237 2.718282 0
w -238 0.367879 0
w 238 2.718282 0
w -239 0.367879 0
w 239 2.718282 0
w -241 0.367879 0
w 241 2.718282 0
w -242 0.367879 0
w 242 2.718282 0
w -243 0.367879 0
w 243 2.718282 0
w -245 0.367879 0
w 245 2.718282 0
w -247 0.367879 0
w 247 2.718282 0
w -250 0.367879 0
w 250 2.718282 0
w -252 0.367879 0
w 252 2.718282 0
w -253 0.367879 0
w 253 2.718282 0
w -256 0.367879 0
w 256 2.718282 0
w -259 0.367879 0
w 259 2.718282 0
w -260 0.367879 0
w 260 2.718282 0
w -262 0.367879 0
w 262 2.718282 0
w -265 0.367879 0
w 265 2.718282 0
w -266 0.367879 0
w 266 2.718282 0
w -268 0.367879 0
w 268 2.718282 0
w -269 0.367879 0
w 269 2.718282 0
w -273 0.367879 0
w 273 2.718282 0
w -276 0.367879 0
w 276 2.718282 0
w -278 0.367879 0
w 278 2.718282 0
w -279 0.367879 0
w 279 2.718282 0
w -281 0.367879 0
w 281 2.718282 0
w -285 0.367879 0
w 285 2.718282 0
w -287 0.367879 0
w 287 2.718282 0
w -288 0.367879 0
w 288 2.718282 0
w -295 0.367879 0
w 295 2.718282 0
w -296 0.367879 0
w 296 2.718282 0
w -298 0.367879 0
w 298 2.718282 0
w -301 0.367879 0
w 301 2.718282 0
w -304 0.367879 0
w 304 2.718282 0
w -306 0.367879 0
w 306 2.718282 0
w -311 0.367879 0
w 311 2.718282 0
w -316 0.367879 0
w 316 2.718282 0
w -317 0.367879 0
w 317 2.718282 0
2 1 76 0
2 -1 -76 0
-2 1 -76 0
-2 -1 76 0
3 1 120 0
3 -1 -120 0
-3 1 -120 0
-3 -1 120 0
4 1 310 0
4 -1 -310 0
-4 1 -310 0
-4 -1 310 0
6 5 157 0
6 -5 -157 0
-6 5 -157 0
-6 -5 157 0
7 5 163 0
7 -5 -163 0
-7 5 -163 0
-7 -5 163 0
8 5 203 0
8 -5 -203 0
-8 5 -203 0
-8 -5 203 0
10 9 41 0
10 -9 -41 0
-10 9 -41 0
-10 -9 41 0
11 9 109 0
11 -9 -109 0
-11 9 -109 0
-11 -9 109 0
12 9 166 0
12 -9 -166 0
-12 9 -166 0
-12 -9 166 0
14 13 161 0
14 -13 -161 0
-14 13 -161 0
-14 -13 161 0
15 13 244 0
15 -13 -244 0
-15 13 -244 0
-15 -13 244 0
16 13 255 0
16 -13 -255 0
-16 13 -255 0
-16 -13 255 0
17 13 258 0
17 -13 -258 0
-17 13 -258 0
-17 -13 258 0
18 13 294 0
18 -13 -294 0
-18 13 -294 0
-18 -13 294 0
19 13 314 0
19 -13 -314 0
-19 13 -314 0
-19 -13 314 0
20 13 325 0
20 -13 -325 0
-20 13 -325 0
-20 -13 325 0
22 21 81 0
22 -21 -81 0
-22 21 -81 0
-22 -21 81 0
23 21 204 0
23 -21 -204 0
-23 21 -204 0
-23 -21 204 0
24 21 215 0
24 -21 -215 0
-24 21 -215 0
-24 -21 215 0
25 21 282 0
25 -21 -282 0
-25 21 -282 0
-25 -21 282 0
26 21 299 0
26 -21 -299 0
-26 21 -299 0
-26 -21 299 0
28 27 172 0
28 -27 -172 0
-28 27 -172 0
-28 -27 172 0
29 27 203 0
29 -27 -203 0
-29 27 -203 0
-29 -27 203 0
31 30 207 0
31 -30 -207 0
-31 30 -207 0
-31 -30 207 0
32 30 290 0
32 -30 -290 0
-32 30 -290 0
-32 -30 290 0
35 34 102 0
35 -34 -102 0
-35 34 -102 0
-35 -34 102 0
36 34 166 0
36 -34 -166 0
-36 34 -166 0
-36 -34 166 0
37 34 297 0
37 -34 -297 0
-37 34 -297 0
-37 -34 297 0
39 38 115 0
39 -38 -115 0
-39 38 -115 0
-39 -38 115 0
40 38 248 0
40 -38 -248 0
-40 38 -248 0
-40 -38 248 0
42 41 141 0
42 -41 -141 0
-42 41 -141 0
-42 -41 141 0
43 41 212 0
43 -41 -212 0
-43 41 -212 0
-43 -41 212 0
44 41 254 0
44 -41 -254 0
-44 41 -254 0
-44 -41 254 0
45 41 257 0
45 -41 -257 0
-45 41 -257 0
-45 -41 257 0
47 46 149 0
47 -46 -149 0
-47 46 -149 0
-47 -46 149 0
48 46 191 0
48 -46 -191 0
-48 46 -191 0
-48 -46 191 0
49 46 270 0
49 -46 -270 0
-49 46 -270 0
-49 -46 270 0
50 46 322 0
50 -46 -322 0
-50 46 -322 0
-50 -46 322 0
52 51 92 0
52 -51 -92 0
-52 51 -92 0
-52 -51 92 0
53 51 169 0
53 -51 -169 0
-53 51 -169 0
-53 -51 169 0
54 51 191 0
54 -51 -191 0
-54 51 -191 0
-54 -51 191 0
55 51 271 0
55 -51 -271 0
-55 51 -271 0
-55 -51 271 0
57 56 133 0
57 -56 -133 0
-57 56 -133 0
-57 -56 133 0
59 58 120 0
59 -58 -120 0
-59 58 -120 0
-59 -58 120 0
60 58 229 0
60 -58 -229 0
-60 58 -229 0
-60 -58 229 0
63 62 169 0
63 -62 -169 0
-63 62 -169 0
-63 -62 169 0
64 62 215 0
64 -62 -215 0
-64 62 -215 0
-64 -62 215 0
65 62 240 0
65 -62 -240 0
-65 62 -240 0
-65 -62 240 0
66 62 289 0
66 -62 -289 0
-66 62 -289 0
-66 -62 289 0
67 62 322 0
67 -62 -322 0
-67 62 -322 0
-67 -62 322 0
69 68 141 0
69 -68 -141 0
-69 68 -141 0
-69 -68 141 0
70 68 151 0
70 -68 -151 0
-70 68 -151 0
-70 -68 151 0
71 68 227 0
71 -68 -227 0
-71 68 -227 0
-71 -68 227 0
72 68 322 0
72 -68 -322 0
-72 68 -322 0
-72 -68 322 0
74 73 251 0
74 -73 -251 0
-74 73 -251 0
-74 -73 251 0
75 73 308 0
75 -73 -308 0
-75 73 -308 0
-75 -73 308 0
77 76 115 0
77 -76 -115 0
-77 76 -115 0
-77 -76 115 0
78 76 169 0
78 -76 -169 0
-78 76 -169 0
-78 -76 169 0
79 76 216 0
79 -76 -216 0
-79 76 -216 0
-79 -76 216 0
80 76 264 0
80 -76 -264 0
-80 76 -264 0
-80 -76 264 0
82 81 257 0
82 -81 -257 0
-82 81 -257 0
-82 -81 257 0
83 81 294 0
83 -81 -294 0
-83 81 -294 0
-83 -81 294 0
84 81 323 0
84 -81 -323 0
-84 81 -323 0
-84 -81 323 0
86 85 135 0
86 -85 -135 0
-86 85 -135 0
-86 -85 135 0
87 85 294 0
87 -85 -294 0
-87 85 -294 0
-87 -85 294 0
88 85 307 0
88 -85 -307 0
-88 85 -307 0
-88 -85 307 0
90 89 193 0
90 -89 -193 0
-90 89 -193 0
-90 -89 193 0
91 89 263 0
91 -89 -263 0
-91 89 -263 0
-91 -89 263 0
93 92 163 0
93 -92 -163 0
-93 92 -163 0
-93 -92 163 0
94 92 229 0
94 -92 -229 0
-94 92 -229 0
-94 -92 229 0
96 95 123 0
96 -95 -123 0
-96 95 -123 0
-96 -95 123 0
97 95 141 0
97 -95 -141 0
-97 95 -141 0
-97 -95 141 0
98 95 284 0
98 -95 -284 0
-98 95 -284 0
-98 -95 284 0
100 99 236 0
100 -99 -236 0
-100 99 -236 0
-100 -99 236 0
101 99 302 0
101 -99 -302 0
-101 99 -302 0
-101 -99 302 0
103 102 133 0
103 -102 -133 0
-103 102 -133 0
-103 -102 133 0
104 102 225 0
104 -102 -225 0
-104 102 -225 0
-104 -102 225 0
105 102 293 0
105 -102 -293 0
-105 102 -293 0
-105 -102 293 0
106 102 297 0
106 -102 -297 0
-106 102 -297 0
-106 -102 297 0
107 102 299 0
107 -102 -299 0
-107 102 -299 0
-107 -102 299 0
110 109 196 0
110 -109 -196 0
-110 109 -196 0
-110 -109 196 0
113 112 292 0
113 -112 -292 0
-113 112 -292 0
-113 -112 292 0
114 112 300 0
114 -112 -300 0
-114 112 -300 0
-114 -112 300 0
116 115 177 0
116 -115 -177 0
-116 115 -177 0
-116 -115 177 0
117 115 227 0
117 -115 -227 0
-117 115 -227 0
-117 -115 227 0
118 115 231 0
118 -115 -231 0
-118 115 -231 0
-118 -115 231 0
119 115 270 0
119 -115 -270 0
-119 115 -270 0
-119 -115 270 0
121 120 131 0
121 -120 -131 0
-121 120 -131 0
-121 -120 131 0
122 120 264 0
122 -120 -264 0
-122 120 -264 0
-122 -120 264 0
124 123 207 0
124 -123 -207 0
-124 123 -207 0
-124 -123 207 0
125 123 212 0
125 -123 -212 0
-125 123 -212 0
-125 -123 212 0
126 123 224 0
126 -123 -224 0
-126 123 -224 0
-126 -123 224 0
127 123 313 0
127 -123 -313 0
-127 123 -313 0
-127 -123 313 0
129 128 212 0
129 -128 -212 0
-129 128 -212 0
-129 -128 212 0
130 128 309 0
130 -128 -309 0
-130 128 -309 0
-130 -128 309 0
132 131 305 0
132 -131 -305 0
-132 131 -305 0
-132 -131 305 0
134 133 157 0
134 -133 -157 0
-134 133 -157 0
-134 -133 157 0
136 135 193 0
136 -135 -193 0
-136 135 -193 0
-136 -135 193 0
137 135 235 0
137 -135 -235 0
-137 135 -235 0
-137 -135 235 0
138 135 326 0
138 -135 -326 0
-138 135 -326 0
-138 -135 326 0
140 139 305 0
140 -139 -305 0
-140 139 -305 0
-140 -139 305 0
142 141 206 0
142 -141 -206 0
-142 141 -206 0
-142 -141 206 0
143 141 225 0
143 -141 -225 0
-143 141 -225 0
-143 -141 225 0
144 141 270 0
144 -141 -270 0
-144 141 -270 0
-144 -141 270 0
146 145 177 0
146 -145 -177 0
-146 145 -177 0
-146 -145 177 0
147 145 291 0
147 -145 -291 0
-147 145 -291 0
-147 -145 291 0
148 145 318 0
148 -145 -318 0
-148 145 -318 0
-148 -145 318 0
150 149 291 0
150 -149 -291 0
-150 149 -291 0
-150 -149 291 0
152 151 166 0
152 -151 -166 0
-152 151 -166 0
-152 -151 166 0
153 151 177 0
153 -151 -177 0
-153 151 -177 0
-153 -151 177 0
154 151 191 0
154 -151 -191 0
-154 151 -191 0
-154 -151 191 0
155 151 246 0
155 -151 -246 0
-155 151 -246 0
-155 -151 246 0
156 151 297 0
156 -151 -297 0
-156 151 -297 0
-156 -151 297 0
158 157 221 0
158 -157 -221 0
-158 157 -221 0
-158 -157 221 0
159 157 272 0
159 -157 -272 0
-159 157 -272 0
-159 -157 272 0
160 157 299 0
160 -157 -299 0
-160 157 -299 0
-160 -157 299 0
162 161 307 0
162 -161 -307 0
-162 161 -307 0
-162 -161 307 0
164 163 203 0
164 -163 -203 0
-164 163 -203 0
-164 -163 203 0
165 163 322 0
165 -163 -322 0
-165 163 -322 0
-165 -163 322 0
167 166 307 0
167 -166 -307 0
-167 166 -307 0
-167 -166 307 0
168 166 319 0
168 -166 -319 0
-168 166 -319 0
-168 -166 319 0
170 169 227 0
170 -169 -227 0
-170 169 -227 0
-170 -169 227 0
171 169 229 0
171 -169 -229 0
-171 169 -229 0
-171 -169 229 0
174 173 283 0
174 -173 -283 0
-174 173 -283 0
-174 -173 283 0
175 173 293 0
175 -173 -293 0
-175 173 -293 0
-175 -173 293 0
176 173 327 0
176 -173 -327 0
-176 173 -327 0
-176 -173 327 0
179 178 293 0
179 -178 -293 0
-179 178 -293 0
-179 -178 293 0
181 180 185 0
181 -180 -185 0
-181 180 -185 0
-181 -180 185 0
182 180 203 0
182 -180 -203 0
-182 180 -203 0
-182 -180 203 0
183 180 248 0
183 -180 -248 0
-183 180 -248 0
-183 -180 248 0
184 180 297 0
184 -180 -297 0
-184 180 -297 0
-184 -180 297 0
186 185 229 0
186 -185 -229 0
-186 185 -229 0
-186 -185 229 0
187 185 235 0
187 -185 -235 0
-187 185 -235 0
-187 -185 235 0
188 185 282 0
188 -185 -282 0
-188 185 -282 0
-188 -185 282 0
189 185 313 0
189 -185 -313 0
-189 185 -313 0
-189 -185 313 0
190 185 325 0
190 -185 -325 0
-190 185 -325 0
-190 -185 325 0
192 191 297 0
192 -191 -297 0
-192 191 -297 0
-192 -191 297 0
194 193 254 0
194 -193 -254 0
-194 193 -254 0
-194 -193 254 0
195 193 284 0
195 -193 -284 0
-195 193 -284 0
-195 -193 284 0
197 196 224 0
197 -196 -224 0
-197 196 -224 0
-197 -196 224 0
198 196 280 0
198 -196 -280 0
-198 196 -280 0
-198 -196 280 0
199 196 305 0
199 -196 -305 0
-199 196 -305 0
-199 -196 305 0
200 196 312 0
200 -196 -312 0
-200 196 -312 0
-200 -196 312 0
202 201 319 0
202 -201 -319 0
-202 201 -319 0
-202 -201 319 0
205 204 272 0
205 -204 -272 0
-205 204 -272 0
-205 -204 272 0
208 207 307 0
208 -207 -307 0
-208 207 -307 0
-208 -207 307 0
210 209 215 0
210 -209 -215 0
-210 209 -215 0
-210 -209 215 0
211 209 327 0
211 -209 -327 0
-211 209 -327 0
-211 -209 327 0
213 212 255 0
213 -212 -255 0
-213 212 -255 0
-213 -212 255 0
214 212 314 0
214 -212 -314 0
-214 212 -314 0
-214 -212 314 0
217 216 258 0
217 -216 -258 0
-217 216 -258 0
-217 -216 258 0
218 216 284 0
218 -216 -284 0
-218 216 -284 0
-218 -216 284 0
219 216 320 0
219 -216 -320 0
-219 216 -320 0
-219 -216 320 0
220 216 324 0
220 -216 -324 0
-220 216 -324 0
-220 -216 324 0
222 221 235 0
222 -221 -235 0
-222 221 -235 0
-222 -221 235 0
223 221 271 0
223 -221 -271 0
-223 221 -271 0
-223 -221 271 0
228 227 249 0
228 -227 -249 0
-228 227 -249 0
-228 -227 249 0
230 229 267 0
230 -229 -267 0
-230 229 -267 0
-230 -229 267 0
232 231 255 0
232 -231 -255 0
-232 231 -255 0
-232 -231 255 0
233 231 275 0
233 -231 -275 0
-233 231 -275 0
-233 -231 275 0
234 231 291 0
234 -231 -291 0
-234 231 -291 0
-234 -231 291 0
237 236 274 0
237 -236 -274 0
-237 236 -274 0
-237 -236 274 0
238 236 307 0
238 -236 -307 0
-238 236 -307 0
-238 -236 307 0
239 236 319 0
239 -236 -319 0
-239 236 -319 0
-239 -236 319 0
241 240 277 0
241 -240 -277 0
-241 240 -277 0
-241 -240 277 0
242 240 294 0
242 -240 -294 0
-242 240 -294 0
-242 -240 294 0
243 240 322 0
243 -240 -322 0
-243 240 -322 0
-243 -240 322 0
245 244 315 0
245 -244 -315 0
-245 244 -315 0
-245 -244 315 0
247 246 283 0
247 -246 -283 0
-247 246 -283 0
-247 -246 283 0
250 249 289 0
250 -249 -289 0
-250 249 -289 0
-250 -249 289 0
252 251 282 0
252 -251 -282 0
-252 251 -282 0
-252 -251 282 0
253 251 324 0
253 -251 -324 0
-253 251 -324 0
-253 -251 324 0
256 255 303 0
256 -255 -303 0
-256 255 -303 0
-256 -255 303 0
259 258 290 0
259 -258 -290 0
-259 258 -290 0
-259 -258 290 0
260 258 320 0
260 -258 -320 0
-260 258 -320 0
-260 -258 320 0
262 261 321 0
262 -261 -321 0
-262 261 -321 0
-262 -261 321 0
265 264 302 0
265 -264 -302 0
-265 264 -302 0
-265 -264 302 0
266 264 309 0
266 -264 -309 0
-266 264 -309 0
-266 -264 309 0
268 267 300 0
268 -267 -300 0
-268 267 -300 0
-268 -267 300 0
269 267 327 0
269 -267 -327 0
-269 267 -327 0
-269 -267 327 0
273 272 321 0
273 -272 -321 0
-273 272 -321 0
-273 -272 321 0
276 275 310 0
276 -275 -310 0
-276 275 -310 0
-276 -275 310 0
278 277 299 0
278 -277 -299 0
-278 277 -299 0
-278 -277 299 0
279 277 322 0
279 -277 -322 0
-279 277 -322 0
-279 -277 322 0
281 280 286 0
281 -280 -286 0
-281 280 -286 0
-281 -280 286 0
285 284 319 0
285 -284 -319 0
-285 284 -319 0
-285 -284 319 0
287 286 300 0
287 -286 -300 0
-287 286 -300 0
-287 -286 300 0
288 286 325 0
288 -286 -325 0
-288 286 -325 0
-288 -286 325 0
295 294 307 0
295 -294 -307 0
-295 294 -307 0
-295 -294 307 0
296 294 314 0
296 -294 -314 0
-296 294 -314 0
-296 -294 314 0
298 297 303 0
298 -297 -303 0
-298 297 -303 0
-298 -297 303 0
301 300 315 0
301 -300 -315 0
-301 300 -315 0
-301 -300 315 0
304 303 318 0
304 -303 -318 0
-304 303 -318 0
-304 -303 318 0
306 305 310 0
306 -305 -310 0
-306 305 -310 0
-306 -305 310 0
311 310 325 0
311 -310 -325 0
-311 310 -325 0
-311 -310 325 0
316 315 324 0
316 -315 -324 0
-316 315 -324 0
-316 -315 324 0
317 315 325 0
317 -315 -325 0
-317 315 -325 0
-317 -315 325 0
